840.20 0
0 67 65 63 74 62 66 0
0 91 89 88 85 84 82 83 86 87 90 0
0 98 96 95 94 92 93 97 100 99 5 0
0 13 17 18 19 15 16 14 12 11 0
0 21 22 25 27 29 33 32 24 20 0
0 47 46 50 51 48 45 44 40 41 42 43 0
0 23 26 28 30 34 36 39 38 37 35 31 52 49 0
0 10 8 9 6 7 3 4 2 1 75 0
0 69 68 64 61 72 80 79 77 73 70 71 76 78 81 0
0 59 60 58 56 53 54 55 57 0
